(set-logic ALL)
(declare-fun var0 () String)
(assert (str.in_re var0 (re.++ (re.+ (re.union (re.* (re.+ (re.+ (re.+ (re.+ (re.+ (str.to_re "000"))))))) (re.* (re.union (re.+ (re.union (re.* (re.+ (str.to_re "11"))) (re.* (re.union (str.to_re "2") (str.to_re "333"))))) (re.+ (re.* (re.+ (re.* (str.to_re "444"))))))))) (re.* (re.+ (re.union (re.+ (re.* (re.* (re.* (re.union (str.to_re "55") (str.to_re "6")))))) (re.+ (re.+ (re.union (re.+ (re.* (str.to_re "777"))) (re.+ (re.union (str.to_re "88") (str.to_re "9"))))))))))))
(assert (<= 15 (str.len var0)))
(check-sat)